(set-info :source |printed by MathSAT|)
(declare-fun |!{$(in_main#0)<S>}| () Int)
(declare-fun |!{$(in_main#0)<S>}.next| () Int)
(declare-fun |!{$(in_main#0)<i>}| () Int)
(declare-fun |!{$(in_main#0)<i>}.next| () Int)
(declare-fun |!{$(in_main#0)<k>}| () Int)
(declare-fun |!{$(in_main#0)<k>}.next| () Int)
(declare-fun |!{$(in_main#0)<a.1>}| () (Array Int Int))
(declare-fun |!{$(in_main#0)<a.1>}.next| () (Array Int Int))
(declare-fun |!{$(in_main#0)<$(in___VERIFIER_nondet_int#0)<h#<__VERIFIER_nondet_int.return>>>}| () Int)
(declare-fun !pc () Int)
(declare-fun !pc.next () Int)
(declare-fun |%{$(in_main#0)<k>}#1| () Int)
(declare-fun |%{$(in_main#0)<a.1>}#1| () (Array Int Int))
(define-fun .def_28 () Int (! !pc :next !pc.next))
(define-fun .def_31 () Bool (! (= .def_28 2) :init true))
(define-fun .def_157 () Bool (= .def_28 39))
(define-fun .def_130 () Bool (= !pc.next 53))
(define-fun .def_160 () Bool (and .def_130 .def_157))
(define-fun .def_8 () Int (! |!{$(in_main#0)<S>}| :next |!{$(in_main#0)<S>}.next|))
(define-fun .def_70 () Bool (= .def_8 |!{$(in_main#0)<S>}.next|))
(define-fun .def_48 () Bool (= |!{$(in_main#0)<i>}.next| 0))
(define-fun .def_153 () Bool (and .def_48 .def_70))
(define-fun .def_12 () Int (! |!{$(in_main#0)<k>}| :next |!{$(in_main#0)<k>}.next|))
(define-fun .def_74 () Bool (= .def_12 |!{$(in_main#0)<k>}.next|))
(define-fun .def_154 () Bool (and .def_74 .def_153))
(define-fun .def_14 () (Array Int Int) (! |!{$(in_main#0)<a.1>}| :next |!{$(in_main#0)<a.1>}.next|))
(define-fun .def_76 () Bool (= .def_14 |!{$(in_main#0)<a.1>}.next|))
(define-fun .def_155 () Bool (and .def_76 .def_154))
(define-fun .def_10 () Int (! |!{$(in_main#0)<i>}| :next |!{$(in_main#0)<i>}.next|))
(define-fun .def_108 () Bool (<= .def_8 .def_10))
(define-fun .def_156 () Bool (and .def_108 .def_155))
(define-fun .def_161 () Bool (and .def_156 .def_160))
(define-fun .def_56 () Bool (= !pc.next 39))
(define-fun .def_158 () Bool (and .def_56 .def_157))
(define-fun .def_111 () Int (* .def_10 .def_10))
(define-fun .def_147 () Int (+ .def_111 (- 1)))
(define-fun .def_148 () (Array Int Int) (store .def_14 .def_10 .def_147))
(define-fun .def_150 () Bool (= |!{$(in_main#0)<a.1>}.next| .def_148))
(define-fun .def_116 () Int (* (- 1) |!{$(in_main#0)<i>}.next|))
(define-fun .def_117 () Int (+ .def_10 .def_116))
(define-fun .def_118 () Bool (= .def_117 (- 1)))
(define-fun .def_119 () Bool (and .def_70 .def_118))
(define-fun .def_120 () Bool (and .def_74 .def_119))
(define-fun .def_151 () Bool (and .def_120 .def_150))
(define-fun .def_109 () Bool (not .def_108))
(define-fun .def_152 () Bool (and .def_109 .def_151))
(define-fun .def_159 () Bool (and .def_152 .def_158))
(define-fun .def_162 () Bool (or .def_159 .def_161))
(define-fun .def_129 () Bool (= .def_28 53))
(define-fun .def_97 () Bool (= !pc.next 66))
(define-fun .def_133 () Bool (and .def_97 .def_129))
(define-fun .def_124 () Bool (= |!{$(in_main#0)<k>}.next| 0))
(define-fun .def_72 () Bool (= .def_10 |!{$(in_main#0)<i>}.next|))
(define-fun .def_79 () Bool (and .def_70 .def_72))
(define-fun .def_125 () Bool (and .def_79 .def_124))
(define-fun .def_126 () Bool (and .def_76 .def_125))
(define-fun .def_127 () Bool (and .def_108 .def_126))
(define-fun .def_134 () Bool (and .def_127 .def_133))
(define-fun .def_131 () Bool (and .def_129 .def_130))
(define-fun .def_112 () Int (* (- 1) .def_111))
(define-fun .def_110 () Int (select .def_14 .def_10))
(define-fun .def_113 () Int (+ .def_110 .def_112))
(define-fun .def_114 () (Array Int Int) (store .def_14 .def_10 .def_113))
(define-fun .def_121 () Bool (= |!{$(in_main#0)<a.1>}.next| .def_114))
(define-fun .def_122 () Bool (and .def_120 .def_121))
(define-fun .def_123 () Bool (and .def_109 .def_122))
(define-fun .def_132 () Bool (and .def_123 .def_131))
(define-fun .def_135 () Bool (or .def_132 .def_134))
(define-fun .def_101 () Bool (= !pc.next 0))
(define-fun .def_92 () Bool (= .def_28 66))
(define-fun .def_102 () Bool (and .def_92 .def_101))
(define-fun .def_59 () Bool (<= .def_8 .def_12))
(define-fun .def_87 () Bool (and .def_59 .def_70))
(define-fun .def_88 () Bool (and .def_72 .def_87))
(define-fun .def_89 () Bool (and .def_74 .def_88))
(define-fun .def_90 () Bool (and .def_76 .def_89))
(define-fun .def_103 () Bool (and .def_90 .def_102))
(define-fun .def_98 () Bool (and .def_92 .def_97))
(define-fun .def_80 () Int (* (- 1) |!{$(in_main#0)<k>}.next|))
(define-fun .def_81 () Int (+ .def_12 .def_80))
(define-fun .def_82 () Bool (= .def_81 (- 1)))
(define-fun .def_83 () Bool (and .def_79 .def_82))
(define-fun .def_84 () Bool (and .def_76 .def_83))
(define-fun .def_61 () Int (select .def_14 .def_12))
(define-fun .def_63 () Bool (= .def_61 (- 1)))
(define-fun .def_64 () Int (ite .def_63 1 0))
(define-fun .def_65 () Bool (= .def_64 0))
(define-fun .def_66 () Bool (not .def_65))
(define-fun .def_85 () Bool (and .def_66 .def_84))
(define-fun .def_60 () Bool (not .def_59))
(define-fun .def_86 () Bool (and .def_60 .def_85))
(define-fun .def_99 () Bool (and .def_86 .def_98))
(define-fun .def_94 () Bool (= !pc.next 86))
(define-fun .def_95 () Bool (and .def_92 .def_94))
(define-fun .def_71 () Bool (and .def_65 .def_70))
(define-fun .def_73 () Bool (and .def_71 .def_72))
(define-fun .def_75 () Bool (and .def_73 .def_74))
(define-fun .def_77 () Bool (and .def_75 .def_76))
(define-fun .def_78 () Bool (and .def_60 .def_77))
(define-fun .def_96 () Bool (and .def_78 .def_95))
(define-fun .def_100 () Bool (or .def_96 .def_99))
(define-fun .def_104 () Bool (or .def_100 .def_103))
(define-fun .def_57 () Bool (and .def_31 .def_56))
(define-fun .def_52 () Bool (= |!{$(in_main#0)<a.1>}.next| |%{$(in_main#0)<a.1>}#1|))
(define-fun .def_50 () Bool (= |!{$(in_main#0)<k>}.next| |%{$(in_main#0)<k>}#1|))
(define-fun .def_47 () Bool (= |!{$(in_main#0)<S>}.next| |!{$(in_main#0)<$(in___VERIFIER_nondet_int#0)<h#<__VERIFIER_nondet_int.return>>>}|))
(define-fun .def_49 () Bool (and .def_47 .def_48))
(define-fun .def_51 () Bool (and .def_49 .def_50))
(define-fun .def_53 () Bool (and .def_51 .def_52))
(define-fun .def_42 () Bool (<= |!{$(in_main#0)<$(in___VERIFIER_nondet_int#0)<h#<__VERIFIER_nondet_int.return>>>}| 0))
(define-fun .def_43 () Bool (not .def_42))
(define-fun .def_44 () Int (ite .def_43 1 0))
(define-fun .def_45 () Bool (= .def_44 0))
(define-fun .def_46 () Bool (not .def_45))
(define-fun .def_54 () Bool (and .def_46 .def_53))
(define-fun .def_58 () Bool (and .def_54 .def_57))
(define-fun .def_105 () Bool (or .def_58 .def_104))
(define-fun .def_136 () Bool (or .def_105 .def_135))
(define-fun .def_163 () Bool (! (or .def_136 .def_162) :trans true))
(define-fun .def_106 () Bool (= .def_28 86))
(define-fun .def_164 () Bool (! (not .def_106) :invar-property 0 :invar-property-name ||))
(assert true)
